
(set-logic ALL) 

(declare-datatype MyList ((Nil) (Cons (head Real) (tail MyList)) )) 
(declare-fun l0 () MyList) 
(declare-fun l1 () MyList) 
(declare-fun l2 () MyList) 
(declare-fun l3 () MyList) 
(declare-fun i0 () Real) 
(declare-fun i1 () Real) 
(assert (is-Cons l0) )
(assert (is-Cons Nil) )
(assert (= l0 l2) )
(assert (or (is-Nil Nil) (is-Cons Nil) (= l2 Nil)) )
(assert (and (= l3 Nil) (= l2 l3) (= l2 Nil)) )
(assert (not (= l0 l3)) )
(assert (and (= l1 Nil) (= l2 l2) (is-Nil Nil)) )
(assert (and (= l0 Nil) (= l1 Nil) (= l1 Nil)) )
(check-sat)
